{
	problem: { "name": "Mendel", "mustbe": "<5" },
	variables: {"g1":["a1a1", "a1a2", "a1a3", "a1a4", "a2a2", "a2a3", "a2a4", "a3a3", "a3a4", "a4a4"], "g2":["a1a1", "a1a2", "a1a3", "a1a4", "a2a2", "a2a3", "a2a4", "a3a3", "a3a4", "a4a4"], "g3":["a1a1", "a1a2", "a1a3", "a1a4", "a2a2", "a2a3", "a2a4", "a3a3", "a3a4", "a4a4"], "g4":["a1a1", "a1a2", "a1a3", "a1a4", "a2a2", "a2a3", "a2a4", "a3a3", "a3a4", "a4a4"], "g5":["a1a1", "a1a2", "a1a3", "a1a4", "a2a2", "a2a3", "a2a4", "a3a3", "a3a4", "a4a4"]},
	functions: {
		{scope: ["g1", "g2", "g3"], "costs": [0, 5, 5, 5, 5, 5, 5, 5, 5, 5, 0, 0, 5, 5, 5, 5, 5, 5, 5, 5, 0, 5, 0, 5, 5, 5, 5, 5, 5, 5, 0, 5, 5, 0, 5, 5, 5, 5, 5, 5, 5, 0, 5, 5, 5, 5, 5, 5, 5, 5, 5, 0, 0, 5, 5, 5, 5, 5, 5, 5, 5, 0, 5, 0, 5, 5, 5, 5, 5, 5, 5, 5, 0, 5, 5, 5, 5, 5, 5, 5, 5, 5, 0, 0, 5, 5, 5, 5, 5, 5, 5, 5, 5, 0, 5, 5, 5, 5, 5, 5, 0, 0, 5, 5, 5, 5, 5, 5, 5, 5, 0, 0, 5, 5, 0, 5, 5, 5, 5, 5, 0, 0, 0, 5, 5, 0, 5, 5, 5, 5, 0, 0, 5, 0, 5, 5, 0, 5, 5, 5, 5, 0, 5, 5, 0, 5, 5, 5, 5, 5, 5, 0, 0, 5, 0, 0, 5, 5, 5, 5, 5, 0, 5, 0, 0, 5, 0, 5, 5, 5, 5, 5, 0, 5, 5, 0, 5, 5, 5, 5, 5, 5, 0, 0, 5, 0, 0, 5, 5, 5, 5, 5, 5, 0, 5, 5, 0, 5, 5, 5, 0, 5, 0, 5, 5, 5, 5, 5, 5, 5, 0, 0, 0, 5, 5, 0, 5, 5, 5, 5, 0, 5, 0, 5, 5, 5, 5, 0, 5, 5, 0, 5, 0, 0, 5, 5, 5, 5, 0, 5, 5, 0, 5, 5, 5, 0, 5, 5, 5, 5, 5, 0, 0, 5, 5, 0, 5, 0, 5, 5, 5, 0, 5, 0, 5, 0, 5, 5, 0, 5, 5, 5, 0, 5, 5, 5, 5, 0, 5, 5, 5, 5, 0, 0, 5, 5, 5, 0, 0, 5, 5, 5, 5, 0, 5, 5, 5, 5, 0, 5, 0, 5, 5, 0, 5, 5, 5, 5, 5, 5, 0, 0, 5, 0, 5, 5, 0, 5, 5, 5, 0, 5, 0, 0, 5, 5, 5, 5, 0, 5, 0, 5, 5, 0, 5, 5, 5, 5, 5, 0, 5, 0, 5, 5, 5, 5, 0, 5, 5, 5, 5, 0, 0, 5, 5, 5, 0, 5, 0, 5, 5, 0, 5, 0, 5, 5, 0, 5, 5, 0, 5, 5, 0, 5, 5, 5, 5, 5, 0, 5, 5, 5, 0, 0, 5, 5, 5, 5, 0, 0, 5, 5, 5, 0, 5, 5, 5, 5, 5, 0, 5, 0, 5, 5, 5, 5, 5, 5, 5, 5, 5, 0, 5, 5, 0, 5, 5, 5, 5, 5, 5, 0, 5, 5, 5, 0, 5, 5, 5, 5, 5, 0, 5, 5, 5, 5, 0, 5, 5, 5, 5, 5, 5, 5, 0, 5, 5, 5, 5, 5, 5, 5, 5, 5, 0, 0, 5, 5, 5, 5, 5, 5, 5, 5, 0, 5, 0, 5, 5, 5, 5, 5, 5, 5, 5, 0, 5, 5, 5, 5, 5, 5, 5, 5, 5, 0, 0, 5, 5, 5, 5, 5, 5, 5, 5, 5, 0, 5, 5, 5, 5, 0, 0, 5, 5, 5, 5, 5, 5, 5, 5, 0, 0, 5, 0, 0, 5, 5, 5, 5, 5, 0, 0, 5, 5, 0, 5, 0, 5, 5, 5, 0, 0, 5, 5, 5, 0, 5, 0, 5, 5, 5, 5, 5, 0, 0, 5, 5, 5, 5, 5, 5, 5, 5, 0, 0, 5, 0, 5, 5, 5, 5, 5, 5, 0, 0, 0, 5, 0, 5, 5, 5, 5, 5, 5, 0, 5, 0, 5, 5, 5, 5, 5, 5, 5, 0, 0, 0, 0, 5, 5, 5, 5, 5, 5, 5, 0, 5, 0, 5, 5, 0, 5, 0, 5, 5, 5, 5, 5, 5, 5, 0, 5, 0, 0, 5, 0, 5, 5, 5, 5, 0, 5, 0, 5, 0, 5, 5, 0, 5, 5, 0, 5, 0, 5, 5, 0, 5, 5, 0, 5, 5, 5, 5, 0, 5, 0, 5, 5, 5, 5, 5, 5, 5, 0, 0, 0, 5, 0, 5, 5, 5, 5, 5, 0, 5, 0, 5, 5, 0, 5, 5, 5, 5, 5, 0, 5, 5, 0, 5, 5, 5, 5, 5, 5, 0, 0, 5, 0, 0, 5, 5, 5, 5, 5, 5, 0, 5, 5, 0, 5, 5, 0, 5, 5, 5, 5, 5, 5, 5, 5, 5, 0, 5, 5, 0, 5, 5, 5, 5, 5, 5, 0, 5, 5, 5, 5, 0, 5, 5, 5, 5, 0, 5, 5, 5, 5, 5, 0, 5, 5, 5, 5, 5, 5, 0, 5, 5, 5, 5, 5, 5, 5, 5, 5, 0, 5, 0, 5, 5, 5, 5, 5, 5, 5, 0, 5, 5, 0, 5, 5, 5, 5, 5, 5, 5, 5, 0, 5, 5, 5, 5, 5, 5, 5, 5, 5, 0, 0, 5, 5, 5, 5, 5, 5, 5, 5, 5, 0, 5, 5, 5, 0, 0, 5, 5, 5, 5, 5, 5, 5, 5, 0, 0, 5, 0, 0, 5, 5, 5, 5, 5, 0, 0, 5, 5, 5, 0, 0, 5, 5, 5, 0, 0, 5, 5, 5, 5, 0, 0, 5, 5, 5, 5, 5, 0, 0, 5, 5, 5, 5, 5, 5, 5, 5, 0, 0, 0, 0, 5, 5, 5, 5, 5, 5, 0, 0, 5, 0, 0, 5, 5, 5, 5, 5, 5, 5, 0, 0, 5, 5, 5, 5, 5, 5, 5, 5, 0, 0, 0, 5, 5, 5, 5, 5, 5, 5, 5, 0, 0, 5, 5, 5, 0, 5, 5, 5, 5, 5, 5, 5, 5, 5, 0, 5, 5, 0, 5, 5, 5, 5, 5, 5, 0, 5, 5, 5, 5, 0, 5, 5, 5, 5, 0, 5, 5, 5, 5, 5, 0, 5, 5, 5, 5, 5, 5, 0, 5, 5, 5, 5, 5, 5, 5, 5, 5, 0, 5, 0, 5, 5, 5, 5, 5, 5, 5, 0, 5, 5, 0, 5, 5, 5, 5, 5, 5, 5, 5, 0, 5, 5, 5, 5, 5, 5, 5, 5, 5, 0, 0, 5, 5, 5, 5, 5, 5, 5, 5, 5, 0]},
		{scope: ["g3", "g4", "g5"], "costs": [0, 5, 5, 5, 5, 5, 5, 5, 5, 5, 0, 0, 5, 5, 5, 5, 5, 5, 5, 5, 0, 5, 0, 5, 5, 5, 5, 5, 5, 5, 0, 5, 5, 0, 5, 5, 5, 5, 5, 5, 5, 0, 5, 5, 5, 5, 5, 5, 5, 5, 5, 0, 0, 5, 5, 5, 5, 5, 5, 5, 5, 0, 5, 0, 5, 5, 5, 5, 5, 5, 5, 5, 0, 5, 5, 5, 5, 5, 5, 5, 5, 5, 0, 0, 5, 5, 5, 5, 5, 5, 5, 5, 5, 0, 5, 5, 5, 5, 5, 5, 0, 0, 5, 5, 5, 5, 5, 5, 5, 5, 0, 0, 5, 5, 0, 5, 5, 5, 5, 5, 0, 0, 0, 5, 5, 0, 5, 5, 5, 5, 0, 0, 5, 0, 5, 5, 0, 5, 5, 5, 5, 0, 5, 5, 0, 5, 5, 5, 5, 5, 5, 0, 0, 5, 0, 0, 5, 5, 5, 5, 5, 0, 5, 0, 0, 5, 0, 5, 5, 5, 5, 5, 0, 5, 5, 0, 5, 5, 5, 5, 5, 5, 0, 0, 5, 0, 0, 5, 5, 5, 5, 5, 5, 0, 5, 5, 0, 5, 5, 5, 0, 5, 0, 5, 5, 5, 5, 5, 5, 5, 0, 0, 0, 5, 5, 0, 5, 5, 5, 5, 0, 5, 0, 5, 5, 5, 5, 0, 5, 5, 0, 5, 0, 0, 5, 5, 5, 5, 0, 5, 5, 0, 5, 5, 5, 0, 5, 5, 5, 5, 5, 0, 0, 5, 5, 0, 5, 0, 5, 5, 5, 0, 5, 0, 5, 0, 5, 5, 0, 5, 5, 5, 0, 5, 5, 5, 5, 0, 5, 5, 5, 5, 0, 0, 5, 5, 5, 0, 0, 5, 5, 5, 5, 0, 5, 5, 5, 5, 0, 5, 0, 5, 5, 0, 5, 5, 5, 5, 5, 5, 0, 0, 5, 0, 5, 5, 0, 5, 5, 5, 0, 5, 0, 0, 5, 5, 5, 5, 0, 5, 0, 5, 5, 0, 5, 5, 5, 5, 5, 0, 5, 0, 5, 5, 5, 5, 0, 5, 5, 5, 5, 0, 0, 5, 5, 5, 0, 5, 0, 5, 5, 0, 5, 0, 5, 5, 0, 5, 5, 0, 5, 5, 0, 5, 5, 5, 5, 5, 0, 5, 5, 5, 0, 0, 5, 5, 5, 5, 0, 0, 5, 5, 5, 0, 5, 5, 5, 5, 5, 0, 5, 0, 5, 5, 5, 5, 5, 5, 5, 5, 5, 0, 5, 5, 0, 5, 5, 5, 5, 5, 5, 0, 5, 5, 5, 0, 5, 5, 5, 5, 5, 0, 5, 5, 5, 5, 0, 5, 5, 5, 5, 5, 5, 5, 0, 5, 5, 5, 5, 5, 5, 5, 5, 5, 0, 0, 5, 5, 5, 5, 5, 5, 5, 5, 0, 5, 0, 5, 5, 5, 5, 5, 5, 5, 5, 0, 5, 5, 5, 5, 5, 5, 5, 5, 5, 0, 0, 5, 5, 5, 5, 5, 5, 5, 5, 5, 0, 5, 5, 5, 5, 0, 0, 5, 5, 5, 5, 5, 5, 5, 5, 0, 0, 5, 0, 0, 5, 5, 5, 5, 5, 0, 0, 5, 5, 0, 5, 0, 5, 5, 5, 0, 0, 5, 5, 5, 0, 5, 0, 5, 5, 5, 5, 5, 0, 0, 5, 5, 5, 5, 5, 5, 5, 5, 0, 0, 5, 0, 5, 5, 5, 5, 5, 5, 0, 0, 0, 5, 0, 5, 5, 5, 5, 5, 5, 0, 5, 0, 5, 5, 5, 5, 5, 5, 5, 0, 0, 0, 0, 5, 5, 5, 5, 5, 5, 5, 0, 5, 0, 5, 5, 0, 5, 0, 5, 5, 5, 5, 5, 5, 5, 0, 5, 0, 0, 5, 0, 5, 5, 5, 5, 0, 5, 0, 5, 0, 5, 5, 0, 5, 5, 0, 5, 0, 5, 5, 0, 5, 5, 0, 5, 5, 5, 5, 0, 5, 0, 5, 5, 5, 5, 5, 5, 5, 0, 0, 0, 5, 0, 5, 5, 5, 5, 5, 0, 5, 0, 5, 5, 0, 5, 5, 5, 5, 5, 0, 5, 5, 0, 5, 5, 5, 5, 5, 5, 0, 0, 5, 0, 0, 5, 5, 5, 5, 5, 5, 0, 5, 5, 0, 5, 5, 0, 5, 5, 5, 5, 5, 5, 5, 5, 5, 0, 5, 5, 0, 5, 5, 5, 5, 5, 5, 0, 5, 5, 5, 5, 0, 5, 5, 5, 5, 0, 5, 5, 5, 5, 5, 0, 5, 5, 5, 5, 5, 5, 0, 5, 5, 5, 5, 5, 5, 5, 5, 5, 0, 5, 0, 5, 5, 5, 5, 5, 5, 5, 0, 5, 5, 0, 5, 5, 5, 5, 5, 5, 5, 5, 0, 5, 5, 5, 5, 5, 5, 5, 5, 5, 0, 0, 5, 5, 5, 5, 5, 5, 5, 5, 5, 0, 5, 5, 5, 0, 0, 5, 5, 5, 5, 5, 5, 5, 5, 0, 0, 5, 0, 0, 5, 5, 5, 5, 5, 0, 0, 5, 5, 5, 0, 0, 5, 5, 5, 0, 0, 5, 5, 5, 5, 0, 0, 5, 5, 5, 5, 5, 0, 0, 5, 5, 5, 5, 5, 5, 5, 5, 0, 0, 0, 0, 5, 5, 5, 5, 5, 5, 0, 0, 5, 0, 0, 5, 5, 5, 5, 5, 5, 5, 0, 0, 5, 5, 5, 5, 5, 5, 5, 5, 0, 0, 0, 5, 5, 5, 5, 5, 5, 5, 5, 0, 0, 5, 5, 5, 0, 5, 5, 5, 5, 5, 5, 5, 5, 5, 0, 5, 5, 0, 5, 5, 5, 5, 5, 5, 0, 5, 5, 5, 5, 0, 5, 5, 5, 5, 0, 5, 5, 5, 5, 5, 0, 5, 5, 5, 5, 5, 5, 0, 5, 5, 5, 5, 5, 5, 5, 5, 5, 0, 5, 0, 5, 5, 5, 5, 5, 5, 5, 0, 5, 5, 0, 5, 5, 5, 5, 5, 5, 5, 5, 0, 5, 5, 5, 5, 5, 5, 5, 5, 5, 0, 0, 5, 5, 5, 5, 5, 5, 5, 5, 5, 0]},
		{scope: ["g1"], "costs": [1, 1, 1, 1, 1, 1, 1, 1, 0, 1]},
		{scope: ["g2"], "costs": [1, 1, 0, 1, 1, 1, 1, 1, 1, 1]},
		{scope: ["g4"], "costs": [1, 1, 0, 1, 1, 1, 1, 1, 1, 1]},
		{scope: ["g5"], "costs": [1, 1, 1, 1, 1, 0, 1, 1, 1, 1]}
}
